
n_res = 8;
rcap = [18, 19, 18, 20, 1589, 1610, 1594, 1594];
rtype = [1, 1, 1, 1, 2, 2, 2, 2];
n_tasks = 100;
modes =  [{1, 2, 3, 4, 5, 6}, {7, 8, 9, 10, 11, 12}, {13, 14, 15, 16, 17, 18}, {19, 20, 21, 22, 23, 24}, {25, 26, 27, 28, 29, 30}, {31, 32, 33, 34, 35, 36}, {37, 38, 39, 40, 41, 42}, {43, 44, 45, 46, 47, 48}, {49, 50, 51, 52, 53, 54}, {55, 56, 57, 58, 59, 60}, {61, 62, 63, 64, 65, 66}, {67, 68, 69, 70, 71, 72}, {73, 74, 75, 76, 77, 78}, {79, 80, 81, 82, 83, 84}, {85, 86, 87, 88, 89, 90}, {91, 92, 93, 94, 95, 96}, {97, 98, 99, 100, 101, 102}, {103, 104, 105, 106, 107, 108}, {109, 110, 111, 112, 113, 114}, {115, 116, 117, 118, 119, 120}, {121, 122, 123, 124, 125, 126}, {127, 128, 129, 130, 131, 132}, {133, 134, 135, 136, 137, 138}, {139, 140, 141, 142, 143, 144}, {145, 146, 147, 148, 149, 150}, {151, 152, 153, 154, 155, 156}, {157, 158, 159, 160, 161, 162}, {163, 164, 165, 166, 167, 168}, {169, 170, 171, 172, 173, 174}, {175, 176, 177, 178, 179, 180}, {181, 182, 183, 184, 185, 186}, {187, 188, 189, 190, 191, 192}, {193, 194, 195, 196, 197, 198}, {199, 200, 201, 202, 203, 204}, {205, 206, 207, 208, 209, 210}, {211, 212, 213, 214, 215, 216}, {217, 218, 219, 220, 221, 222}, {223, 224, 225, 226, 227, 228}, {229, 230, 231, 232, 233, 234}, {235, 236, 237, 238, 239, 240}, {241, 242, 243, 244, 245, 246}, {247, 248, 249, 250, 251, 252}, {253, 254, 255, 256, 257, 258}, {259, 260, 261, 262, 263, 264}, {265, 266, 267, 268, 269, 270}, {271, 272, 273, 274, 275, 276}, {277, 278, 279, 280, 281, 282}, {283, 284, 285, 286, 287, 288}, {289, 290, 291, 292, 293, 294}, {295, 296, 297, 298, 299, 300}, {301, 302, 303, 304, 305, 306}, {307, 308, 309, 310, 311, 312}, {313, 314, 315, 316, 317, 318}, {319, 320, 321, 322, 323, 324}, {325, 326, 327, 328, 329, 330}, {331, 332, 333, 334, 335, 336}, {337, 338, 339, 340, 341, 342}, {343, 344, 345, 346, 347, 348}, {349, 350, 351, 352, 353, 354}, {355, 356, 357, 358, 359, 360}, {361, 362, 363, 364, 365, 366}, {367, 368, 369, 370, 371, 372}, {373, 374, 375, 376, 377, 378}, {379, 380, 381, 382, 383, 384}, {385, 386, 387, 388, 389, 390}, {391, 392, 393, 394, 395, 396}, {397, 398, 399, 400, 401, 402}, {403, 404, 405, 406, 407, 408}, {409, 410, 411, 412, 413, 414}, {415, 416, 417, 418, 419, 420}, {421, 422, 423, 424, 425, 426}, {427, 428, 429, 430, 431, 432}, {433, 434, 435, 436, 437, 438}, {439, 440, 441, 442, 443, 444}, {445, 446, 447, 448, 449, 450}, {451, 452, 453, 454, 455, 456}, {457, 458, 459, 460, 461, 462}, {463, 464, 465, 466, 467, 468}, {469, 470, 471, 472, 473, 474}, {475, 476, 477, 478, 479, 480}, {481, 482, 483, 484, 485, 486}, {487, 488, 489, 490, 491, 492}, {493, 494, 495, 496, 497, 498}, {499, 500, 501, 502, 503, 504}, {505, 506, 507, 508, 509, 510}, {511, 512, 513, 514, 515, 516}, {517, 518, 519, 520, 521, 522}, {523, 524, 525, 526, 527, 528}, {529, 530, 531, 532, 533, 534}, {535, 536, 537, 538, 539, 540}, {541, 542, 543, 544, 545, 546}, {547, 548, 549, 550, 551, 552}, {553, 554, 555, 556, 557, 558}, {559, 560, 561, 562, 563, 564}, {565, 566, 567, 568, 569, 570}, {571, 572, 573, 574, 575, 576}, {577, 578, 579, 580, 581, 582}, {583, 584, 585, 586, 587, 588}, {589, 590, 591, 592, 593, 594}, {595, 596, 597, 598, 599, 600}];
succ =  [{54, 48, 44, 41, 39, 38, 36, 34, 31, 30, 28, 26, 25, 11}, {34, 33, 30, 28, 25, 4}, {64, 50, 43, 39, 35, 33, 30, 29, 28, 26, 24, 20, 18}, {64, 50, 44, 43, 40, 37, 35, 29, 27, 24, 20}, {64, 50, 45, 39, 35, 33, 30, 20, 18}, {64, 40, 39, 36, 35, 27, 24, 20}, {64, 54, 50, 49, 48, 46, 45, 43, 42, 40, 38, 36, 33, 32, 30}, {64, 54, 53, 50, 48, 47, 40, 39, 36, 35, 33, 24}, {64, 48, 42, 40, 38, 37, 36, 35, 31, 30, 24}, {71, 62, 58, 50, 49, 47, 46, 45, 44, 40, 37, 36, 27}, {64, 53, 50, 47, 43, 42, 40, 35, 33, 24}, {64, 54, 52, 50, 48, 44, 24, 20}, {71, 64, 62, 58, 47, 46, 45, 35, 33, 27}, {64, 59, 58, 52, 49, 48, 47, 43, 42, 41, 40, 38, 33}, {59, 54, 53, 51, 50, 47, 46, 45, 42, 40, 38, 37, 35}, {71, 64, 62, 60, 59, 58, 54, 52, 51, 48, 46, 44, 43, 42, 41, 40, 37}, {71, 62, 61, 59, 58, 55, 54, 51, 50, 48, 44, 42, 41, 35}, {68, 58, 52, 49, 46, 42, 40, 38, 27}, {71, 62, 59, 58, 52, 46, 45, 37, 27}, {68, 61, 60, 57, 55, 49, 47, 46, 42, 38}, {82, 68, 67, 66, 63, 61, 60, 59, 58, 56, 53, 52, 48, 47, 37}, {82, 74, 71, 63, 61, 60, 56, 52, 51, 48, 45, 37}, {74, 70, 68, 65, 64, 63, 60, 57, 40, 38}, {74, 71, 65, 63, 62, 61, 59, 58, 56, 46, 45}, {82, 78, 74, 71, 69, 66, 65, 61, 55, 52, 51, 49}, {78, 77, 74, 66, 65, 63, 61, 60, 58, 52, 46, 45}, {82, 74, 66, 63, 61, 60, 54, 53, 51, 48, 41}, {82, 78, 69, 68, 61, 57, 53, 52, 49, 42}, {78, 74, 70, 67, 63, 62, 61, 60, 56, 52, 51, 48}, {100, 82, 77, 74, 71, 70, 69, 65, 63, 62, 60, 59, 58, 51}, {100, 99, 82, 74, 71, 68, 67, 66, 59, 56, 53, 52, 51}, {82, 78, 71, 70, 69, 68, 66, 63, 61, 60, 56, 51}, {82, 74, 70, 68, 65, 61, 60, 51, 37}, {78, 77, 74, 70, 69, 67, 65, 61, 55, 51, 46}, {98, 82, 74, 68, 65, 60, 57, 52, 49}, {99, 82, 81, 74, 69, 67, 66, 59, 52}, {100, 99, 96, 79, 78, 77, 73, 72, 69, 57, 55}, {100, 95, 81, 78, 77, 75, 72, 71, 67, 66, 62}, {98, 97, 78, 75, 74, 73, 69, 60, 57}, {98, 96, 95, 92, 90, 82, 81, 80, 73, 69, 66, 61}, {98, 95, 93, 73, 72, 70, 57, 56}, {99, 98, 81, 74, 73, 72, 67, 66, 65}, {98, 96, 95, 93, 92, 82, 79, 75, 73, 72, 57}, {100, 96, 81, 78, 76, 74, 56, 53}, {89, 79, 72, 69, 68, 67, 57}, {100, 99, 98, 96, 95, 94, 93, 92, 91, 90, 87, 82, 81, 75, 73, 72}, {97, 96, 92, 90, 81, 80, 79, 77, 76, 75, 73, 72, 69}, {100, 96, 92, 81, 79, 77, 76, 73, 72, 69, 65}, {99, 94, 72, 67, 63, 56}, {95, 94, 93, 92, 82, 77, 76, 74, 73, 70}, {98, 96, 95, 93, 79, 73, 57}, {97, 96, 94, 93, 92, 91, 90, 86, 80, 79, 76, 75, 73}, {98, 94, 92, 91, 90, 89, 84, 79, 77, 75}, {97, 95, 94, 93, 92, 90, 88, 86, 84, 83, 80, 79}, {98, 97, 95, 94, 92, 91, 90, 86, 84, 80, 75}, {97, 92, 91, 90, 89, 84, 79, 77, 75}, {94, 91, 90, 86, 85, 83, 81, 80, 76}, {98, 95, 94, 91, 90, 89, 86, 80, 76}, {98, 96, 95, 87, 84, 79, 78, 72}, {99, 96, 95, 93, 89, 88, 87, 72}, {100, 94, 89, 84, 75, 72}, {94, 93, 91, 90, 89, 87, 86, 84, 83}, {93, 89, 87, 86, 85, 84, 75}, {92, 90, 89, 87, 86, 85, 84, 83}, {95, 93, 87, 85, 84, 75}, {93, 83, 79, 76}, {97, 96, 92, 85, 84, 83}, {96, 95, 90, 88, 87, 86}, {93, 91, 86, 85, 84}, {99, 97, 89, 84, 83}, {80, 79}, {86, 85, 83}, {89, 85, 83}, {91, 90, 83}, {88, 83}, {88, 84}, {87, 86}, {92, 86}, {85}, {87}, {84}, {85}, {}, {}, {}, {}, {}, {}, {}, {}, {}, {}, {}, {}, {}, {}, {}, {}, {}, {}];
n_opt = 600;
dur = [3, 4, 9, 15, 26, 28, 10, 11, 17, 21, 22, 26, 4, 12, 23, 24, 25, 27, 2, 10, 14, 21, 28, 29, 8, 20, 21, 23, 27, 28, 2, 4, 6, 7, 15, 21, 3, 7, 10, 18, 25, 27, 2, 5, 11, 12, 14, 18, 3, 5, 12, 15, 20, 25, 4, 5, 8, 10, 17, 24, 6, 19, 23, 25, 28, 29, 9, 10, 12, 13, 21, 28, 2, 3, 6, 7, 20, 24, 5, 9, 15, 17, 22, 23, 7, 12, 19, 22, 23, 27, 5, 8, 14, 16, 17, 27, 1, 23, 25, 26, 27, 28, 3, 8, 9, 10, 14, 29, 6, 11, 22, 23, 28, 30, 9, 12, 24, 25, 29, 30, 3, 4, 5, 6, 8, 10, 7, 11, 12, 15, 16, 28, 2, 8, 9, 10, 12, 27, 4, 6, 7, 8, 14, 18, 12, 18, 19, 21, 22, 24, 5, 8, 11, 15, 24, 26, 3, 7, 11, 12, 15, 27, 3, 11, 12, 14, 19, 28, 1, 2, 12, 15, 26, 30, 1, 4, 6, 9, 21, 23, 3, 17, 18, 22, 25, 26, 4, 8, 14, 16, 19, 28, 3, 4, 13, 14, 19, 22, 4, 11, 13, 14, 19, 25, 7, 18, 19, 24, 26, 30, 1, 4, 15, 18, 21, 29, 7, 8, 12, 14, 25, 26, 1, 6, 11, 13, 18, 19, 1, 2, 5, 8, 21, 22, 2, 3, 7, 8, 13, 29, 4, 5, 10, 13, 16, 26, 2, 10, 11, 15, 18, 21, 1, 4, 5, 13, 20, 27, 7, 8, 10, 15, 17, 24, 7, 8, 11, 26, 29, 30, 2, 3, 4, 15, 17, 23, 10, 11, 15, 16, 22, 25, 4, 5, 12, 23, 27, 28, 1, 2, 5, 15, 16, 23, 4, 14, 17, 20, 25, 27, 3, 10, 11, 15, 24, 27, 1, 2, 5, 6, 14, 23, 4, 11, 18, 19, 20, 26, 2, 10, 14, 18, 19, 27, 7, 8, 13, 24, 25, 29, 2, 8, 9, 10, 11, 24, 1, 7, 13, 22, 24, 27, 2, 11, 14, 18, 19, 23, 9, 10, 15, 19, 24, 26, 1, 2, 11, 14, 15, 21, 3, 4, 9, 17, 24, 28, 5, 6, 9, 15, 18, 21, 2, 5, 8, 12, 16, 26, 2, 4, 14, 15, 17, 24, 4, 6, 7, 11, 16, 24, 2, 5, 17, 20, 21, 22, 1, 17, 20, 23, 25, 29, 7, 14, 18, 19, 21, 25, 3, 5, 8, 11, 20, 24, 2, 7, 8, 17, 20, 21, 1, 6, 8, 14, 16, 25, 2, 5, 9, 19, 28, 29, 4, 10, 18, 25, 26, 30, 4, 9, 18, 20, 24, 26, 1, 3, 15, 18, 25, 27, 7, 8, 10, 21, 22, 28, 3, 5, 7, 12, 17, 26, 7, 8, 19, 21, 23, 24, 3, 7, 13, 16, 23, 28, 9, 11, 13, 14, 25, 28, 3, 13, 15, 20, 22, 24, 3, 6, 9, 19, 22, 26, 9, 11, 19, 22, 25, 29, 8, 11, 14, 15, 16, 23, 1, 9, 16, 22, 27, 28, 2, 5, 7, 11, 19, 29, 6, 7, 9, 10, 14, 26, 2, 17, 18, 21, 26, 30, 5, 6, 12, 13, 19, 26, 12, 13, 14, 15, 22, 25, 1, 3, 12, 14, 15, 30, 8, 17, 18, 23, 27, 28, 13, 14, 15, 16, 18, 20, 1, 4, 5, 11, 17, 27, 9, 18, 22, 25, 28, 29, 13, 14, 18, 19, 29, 30, 1, 4, 5, 7, 26, 27, 12, 13, 17, 21, 25, 26, 13, 14, 25, 27, 28, 29, 8, 9, 10, 11, 14, 28];
rreq = [|5, 5, 5, 5, 5, 5, 3, 2, 2, 2, 1, 1, 2, 2, 2, 2, 2, 2, 4, 3, 2, 2, 1, 1, 3, 3, 3, 3, 2, 2, 4, 4, 4, 4, 4, 4, 4, 4, 4, 4, 3, 3, 4, 4, 4, 3, 3, 3, 3, 2, 2, 1, 1, 1, 3, 3, 3, 3, 3, 3, 3, 2, 2, 2, 2, 2, 2, 1, 1, 1, 1, 1, 3, 2, 2, 1, 1, 1, 3, 3, 3, 3, 3, 3, 2, 2, 2, 2, 1, 1, 5, 4, 4, 3, 3, 2, 3, 2, 2, 2, 1, 1, 5, 4, 4, 4, 4, 4, 2, 2, 2, 2, 1, 1, 2, 2, 2, 2, 1, 1, 3, 2, 2, 2, 2, 2, 2, 2, 2, 2, 2, 2, 2, 1, 1, 1, 1, 1, 3, 3, 3, 3, 3, 3, 4, 4, 3, 3, 2, 2, 3, 3, 2, 2, 2, 1, 3, 3, 3, 2, 2, 2, 4, 4, 4, 4, 4, 4, 5, 4, 4, 4, 4, 4, 4, 3, 3, 3, 3, 3, 5, 3, 3, 2, 2, 1, 2, 2, 2, 2, 1, 1, 1, 1, 1, 1, 1, 1, 4, 3, 2, 2, 2, 1, 4, 3, 3, 3, 3, 3, 2, 2, 2, 2, 2, 2, 3, 2, 2, 2, 2, 2, 5, 5, 5, 5, 5, 5, 3, 3, 3, 3, 2, 2, 4, 4, 3, 3, 2, 1, 3, 3, 3, 3, 3, 3, 3, 3, 3, 3, 3, 3, 5, 3, 3, 2, 2, 1, 4, 4, 4, 3, 2, 2, 4, 3, 3, 3, 3, 3, 5, 4, 4, 4, 3, 3, 4, 3, 3, 2, 1, 1, 4, 4, 4, 4, 4, 4, 4, 3, 2, 2, 2, 1, 2, 2, 2, 2, 2, 2, 3, 3, 3, 3, 3, 3, 5, 4, 3, 3, 2, 2, 5, 5, 5, 5, 5, 5, 3, 2, 2, 2, 1, 1, 2, 1, 1, 1, 1, 1, 5, 3, 3, 3, 1, 1, 3, 3, 3, 3, 3, 3, 4, 3, 3, 2, 2, 2, 2, 2, 2, 1, 1, 1, 3, 2, 2, 2, 2, 2, 3, 3, 3, 2, 2, 2, 4, 3, 2, 2, 2, 1, 4, 3, 3, 3, 3, 3, 5, 5, 5, 5, 5, 5, 4, 3, 3, 2, 2, 1, 4, 3, 3, 3, 2, 2, 4, 4, 4, 4, 4, 4, 4, 3, 3, 2, 2, 1, 5, 4, 4, 3, 3, 3, 2, 1, 1, 1, 1, 1, 4, 3, 2, 2, 1, 1, 5, 4, 4, 4, 4, 4, 5, 4, 4, 4, 4, 4, 5, 4, 4, 3, 3, 3, 4, 4, 4, 4, 4, 4, 2, 2, 2, 2, 2, 2, 4, 4, 3, 3, 3, 2, 2, 1, 1, 1, 1, 1, 4, 3, 3, 3, 1, 1, 5, 3, 3, 3, 1, 1, 4, 4, 3, 2, 1, 1, 2, 2, 2, 2, 2, 2, 3, 3, 3, 2, 2, 1, 5, 4, 4, 4, 4, 4, 2, 2, 2, 2, 2, 2, 4, 3, 3, 2, 1, 1, 2, 2, 2, 2, 2, 2, 3, 3, 3, 3, 3, 3, 3, 3, 3, 3, 3, 3, 2, 2, 2, 2, 1, 1, 3, 2, 2, 2, 1, 1, 5, 4, 4, 4, 4, 4, 2, 2, 2, 1, 1, 1, 2, 2, 2, 1, 1, 1, 3, 2, 2, 2, 2, 2, 4, 4, 4, 3, 2, 2, 5, 5, 5, 5, 5, 5, 3, 3, 3, 3, 3, 3, 1, 1, 1, 1, 1, 1, 1, 1, 1, 1, 1, 1
 |3, 3, 2, 2, 2, 1, 5, 5, 5, 5, 5, 5, 1, 1, 1, 1, 1, 1, 5, 5, 5, 5, 5, 5, 3, 3, 2, 2, 2, 1, 2, 2, 2, 2, 2, 2, 3, 3, 3, 3, 3, 3, 5, 4, 4, 4, 4, 4, 2, 2, 2, 2, 2, 2, 4, 4, 4, 3, 3, 3, 5, 5, 5, 5, 5, 5, 4, 4, 4, 3, 2, 2, 4, 4, 4, 3, 3, 2, 3, 3, 2, 2, 1, 1, 4, 4, 3, 3, 2, 2, 3, 2, 2, 2, 2, 2, 4, 4, 3, 2, 1, 1, 1, 1, 1, 1, 1, 1, 4, 3, 3, 3, 3, 3, 5, 4, 4, 3, 2, 2, 3, 3, 3, 3, 3, 3, 4, 3, 3, 3, 3, 3, 1, 1, 1, 1, 1, 1, 4, 4, 4, 4, 4, 4, 2, 1, 1, 1, 1, 1, 5, 5, 5, 5, 5, 5, 5, 5, 5, 5, 5, 5, 3, 3, 3, 2, 2, 1, 2, 2, 2, 2, 1, 1, 4, 4, 4, 4, 4, 4, 3, 3, 3, 2, 2, 2, 4, 3, 3, 2, 2, 2, 4, 4, 3, 2, 1, 1, 3, 3, 3, 3, 2, 2, 2, 1, 1, 1, 1, 1, 2, 1, 1, 1, 1, 1, 5, 4, 4, 4, 4, 4, 5, 3, 3, 2, 2, 1, 4, 4, 3, 2, 1, 1, 1, 1, 1, 1, 1, 1, 4, 3, 3, 3, 3, 3, 4, 4, 4, 4, 4, 4, 5, 4, 3, 3, 2, 1, 2, 2, 2, 2, 2, 2, 4, 3, 3, 3, 2, 1, 3, 3, 3, 2, 2, 2, 5, 4, 4, 3, 3, 2, 3, 3, 3, 3, 3, 3, 5, 4, 4, 3, 3, 2, 5, 4, 4, 4, 4, 4, 4, 4, 4, 3, 3, 3, 1, 1, 1, 1, 1, 1, 2, 2, 2, 2, 1, 1, 2, 2, 2, 2, 1, 1, 4, 3, 3, 2, 2, 2, 2, 2, 2, 2, 2, 2, 4, 4, 3, 3, 2, 2, 3, 2, 2, 2, 1, 1, 4, 4, 3, 3, 2, 2, 3, 3, 3, 3, 3, 3, 2, 2, 2, 2, 1, 1, 5, 5, 5, 5, 5, 5, 4, 4, 3, 3, 3, 2, 5, 4, 4, 3, 2, 2, 3, 3, 3, 3, 3, 3, 1, 1, 1, 1, 1, 1, 5, 4, 4, 3, 3, 2, 1, 1, 1, 1, 1, 1, 5, 5, 5, 5, 5, 5, 4, 3, 3, 3, 3, 3, 3, 3, 3, 3, 3, 3, 3, 2, 2, 2, 1, 1, 4, 3, 3, 2, 2, 1, 2, 2, 2, 2, 1, 1, 5, 4, 3, 2, 2, 1, 2, 2, 2, 2, 1, 1, 3, 3, 3, 2, 1, 1, 1, 1, 1, 1, 1, 1, 4, 3, 3, 3, 3, 3, 3, 3, 3, 3, 3, 3, 4, 3, 3, 2, 2, 2, 5, 4, 3, 3, 3, 2, 2, 2, 2, 1, 1, 1, 3, 3, 3, 3, 3, 3, 1, 1, 1, 1, 1, 1, 2, 2, 2, 1, 1, 1, 1, 1, 1, 1, 1, 1, 4, 3, 3, 3, 3, 3, 4, 4, 4, 4, 4, 4, 3, 2, 2, 2, 1, 1, 3, 3, 3, 2, 2, 1, 4, 4, 4, 4, 3, 3, 3, 3, 3, 3, 3, 3, 5, 4, 4, 4, 3, 3, 4, 3, 3, 2, 1, 1, 3, 3, 3, 3, 3, 3, 4, 3, 3, 2, 2, 2, 4, 3, 3, 3, 3, 3, 4, 4, 3, 3, 3, 2, 4, 3, 3, 2, 2, 2
 |4, 3, 3, 2, 2, 2, 3, 3, 3, 2, 2, 2, 5, 4, 3, 3, 2, 2, 5, 4, 4, 4, 4, 4, 2, 2, 2, 2, 2, 2, 3, 2, 2, 1, 1, 1, 2, 2, 2, 2, 2, 2, 1, 1, 1, 1, 1, 1, 1, 1, 1, 1, 1, 1, 2, 2, 2, 1, 1, 1, 5, 4, 4, 3, 3, 2, 3, 3, 3, 3, 3, 3, 4, 4, 4, 4, 3, 3, 1, 1, 1, 1, 1, 1, 4, 3, 3, 2, 2, 2, 4, 3, 3, 3, 2, 1, 4, 4, 4, 3, 3, 2, 5, 4, 4, 4, 4, 4, 3, 3, 3, 3, 3, 3, 4, 4, 3, 2, 1, 1, 5, 3, 3, 3, 1, 1, 4, 4, 4, 4, 4, 4, 2, 2, 2, 1, 1, 1, 5, 4, 4, 4, 4, 4, 4, 4, 4, 4, 4, 4, 3, 3, 2, 2, 2, 1, 2, 1, 1, 1, 1, 1, 4, 4, 4, 3, 3, 3, 5, 4, 4, 3, 2, 2, 2, 2, 2, 2, 2, 2, 3, 2, 2, 2, 2, 2, 1, 1, 1, 1, 1, 1, 3, 3, 3, 3, 2, 2, 4, 3, 3, 3, 3, 3, 3, 3, 3, 2, 2, 2, 1, 1, 1, 1, 1, 1, 4, 3, 3, 2, 2, 1, 4, 3, 3, 2, 2, 2, 2, 2, 2, 1, 1, 1, 3, 3, 3, 3, 3, 3, 4, 4, 4, 4, 4, 4, 1, 1, 1, 1, 1, 1, 4, 3, 3, 3, 3, 3, 4, 3, 3, 2, 2, 2, 2, 2, 2, 2, 2, 2, 2, 2, 2, 2, 2, 2, 4, 4, 3, 3, 3, 2, 4, 4, 4, 4, 4, 4, 4, 3, 3, 3, 2, 2, 4, 4, 4, 3, 3, 2, 2, 2, 2, 2, 2, 2, 5, 4, 4, 3, 3, 3, 4, 3, 2, 2, 1, 1, 4, 4, 4, 4, 4, 4, 4, 4, 4, 4, 4, 4, 5, 5, 5, 5, 5, 5, 3, 3, 3, 3, 3, 3, 1, 1, 1, 1, 1, 1, 5, 4, 3, 3, 2, 1, 3, 3, 3, 3, 2, 2, 2, 2, 2, 2, 2, 2, 3, 3, 3, 3, 3, 3, 4, 3, 3, 2, 2, 1, 3, 3, 3, 2, 2, 1, 5, 5, 5, 5, 5, 5, 4, 4, 4, 4, 4, 4, 3, 2, 2, 2, 1, 1, 4, 4, 4, 4, 4, 4, 5, 4, 3, 3, 2, 1, 4, 4, 4, 4, 4, 4, 3, 3, 3, 3, 3, 3, 4, 4, 4, 4, 4, 4, 4, 4, 4, 3, 3, 3, 4, 4, 4, 4, 4, 4, 4, 4, 4, 4, 4, 4, 3, 2, 2, 2, 1, 1, 2, 1, 1, 1, 1, 1, 3, 2, 2, 2, 1, 1, 1, 1, 1, 1, 1, 1, 5, 4, 4, 3, 3, 2, 4, 3, 3, 3, 1, 1, 5, 4, 4, 4, 3, 3, 1, 1, 1, 1, 1, 1, 5, 4, 3, 3, 2, 2, 4, 4, 4, 4, 4, 4, 2, 2, 2, 2, 1, 1, 1, 1, 1, 1, 1, 1, 2, 2, 2, 2, 2, 2, 4, 4, 3, 3, 3, 2, 1, 1, 1, 1, 1, 1, 2, 2, 2, 2, 2, 2, 2, 1, 1, 1, 1, 1, 2, 2, 2, 2, 2, 2, 2, 1, 1, 1, 1, 1, 4, 4, 4, 3, 3, 3, 3, 2, 2, 2, 1, 1, 3, 3, 3, 3, 3, 3, 4, 3, 3, 3, 3, 3, 3, 3, 3, 3, 2, 2, 5, 3, 3, 2, 1, 1
 |3, 2, 2, 2, 1, 1, 3, 3, 3, 3, 3, 3, 1, 1, 1, 1, 1, 1, 4, 4, 4, 4, 4, 4, 2, 2, 2, 2, 2, 2, 1, 1, 1, 1, 1, 1, 2, 2, 2, 2, 2, 2, 3, 2, 2, 2, 1, 1, 4, 3, 3, 3, 3, 3, 4, 3, 3, 3, 1, 1, 3, 2, 2, 2, 2, 2, 1, 1, 1, 1, 1, 1, 4, 3, 3, 2, 2, 2, 3, 3, 3, 2, 1, 1, 1, 1, 1, 1, 1, 1, 4, 4, 4, 4, 4, 4, 3, 3, 2, 2, 2, 1, 2, 2, 2, 2, 2, 2, 4, 4, 4, 4, 4, 4, 4, 3, 3, 3, 3, 3, 3, 3, 3, 3, 2, 2, 4, 3, 3, 3, 2, 1, 4, 3, 2, 2, 2, 1, 4, 3, 3, 3, 3, 3, 3, 2, 2, 2, 2, 2, 5, 5, 5, 5, 5, 5, 4, 3, 3, 2, 1, 1, 4, 4, 4, 4, 4, 4, 5, 4, 4, 4, 4, 4, 2, 2, 2, 1, 1, 1, 4, 3, 3, 2, 2, 1, 3, 3, 3, 3, 3, 3, 3, 3, 3, 3, 3, 3, 3, 3, 3, 2, 2, 2, 3, 3, 3, 3, 3, 3, 5, 4, 4, 4, 3, 3, 2, 2, 2, 2, 2, 2, 2, 2, 2, 2, 2, 2, 1, 1, 1, 1, 1, 1, 4, 4, 3, 2, 2, 1, 1, 1, 1, 1, 1, 1, 3, 3, 3, 2, 2, 2, 1, 1, 1, 1, 1, 1, 2, 1, 1, 1, 1, 1, 3, 3, 3, 2, 2, 2, 3, 2, 2, 2, 1, 1, 5, 4, 3, 2, 2, 1, 5, 4, 3, 3, 1, 1, 5, 4, 4, 3, 3, 2, 3, 2, 2, 1, 1, 1, 4, 3, 3, 3, 2, 2, 5, 3, 3, 3, 1, 1, 4, 3, 3, 3, 1, 1, 2, 2, 2, 2, 1, 1, 4, 4, 4, 3, 3, 3, 5, 4, 4, 4, 3, 3, 4, 3, 3, 2, 2, 2, 3, 3, 3, 3, 3, 3, 4, 4, 4, 3, 3, 2, 5, 4, 4, 4, 3, 3, 4, 4, 4, 4, 4, 4, 5, 4, 4, 4, 4, 4, 4, 3, 3, 3, 3, 3, 2, 2, 2, 1, 1, 1, 3, 3, 3, 3, 3, 3, 5, 4, 3, 3, 2, 2, 2, 2, 2, 2, 2, 2, 1, 1, 1, 1, 1, 1, 4, 4, 4, 3, 3, 2, 4, 3, 3, 2, 2, 2, 4, 4, 4, 4, 3, 3, 2, 2, 2, 2, 2, 2, 4, 4, 4, 4, 3, 3, 4, 3, 3, 3, 3, 3, 5, 5, 5, 5, 5, 5, 3, 3, 3, 2, 2, 2, 4, 3, 3, 3, 3, 3, 4, 4, 4, 3, 3, 3, 4, 3, 3, 2, 1, 1, 2, 1, 1, 1, 1, 1, 5, 4, 4, 4, 4, 4, 5, 4, 4, 3, 3, 3, 4, 4, 4, 4, 4, 4, 5, 4, 3, 2, 1, 1, 3, 3, 3, 3, 3, 3, 4, 4, 3, 3, 2, 2, 4, 4, 3, 3, 2, 2, 3, 3, 3, 2, 2, 1, 4, 4, 3, 3, 3, 2, 4, 3, 3, 3, 2, 2, 2, 2, 2, 2, 2, 2, 4, 4, 3, 3, 3, 2, 3, 2, 2, 1, 1, 1, 1, 1, 1, 1, 1, 1, 4, 3, 3, 3, 2, 1, 3, 2, 2, 2, 2, 2, 4, 3, 2, 2, 2, 1, 4, 3, 3, 3, 3, 3, 4, 3, 3, 3, 3, 3, 5, 4, 4, 4, 3, 3
 |21, 21, 21, 21, 21, 21, 29, 24, 16, 11, 11, 6, 21, 18, 13, 12, 11, 8, 28, 28, 26, 26, 24, 24, 20, 16, 15, 11, 9, 6, 22, 20, 18, 13, 11, 7, 23, 22, 22, 21, 21, 21, 22, 18, 16, 10, 7, 5, 19, 16, 14, 12, 10, 6, 22, 20, 19, 17, 17, 16, 23, 22, 22, 21, 21, 20, 3, 3, 3, 3, 2, 2, 24, 21, 18, 15, 10, 10, 21, 19, 16, 14, 12, 10, 14, 14, 13, 12, 11, 9, 27, 21, 19, 11, 11, 4, 19, 19, 18, 16, 14, 13, 3, 3, 3, 2, 1, 1, 26, 22, 22, 18, 17, 12, 30, 25, 23, 21, 18, 15, 20, 20, 20, 20, 20, 20, 22, 22, 21, 20, 19, 18, 11, 10, 10, 10, 9, 9, 25, 22, 18, 14, 12, 9, 23, 18, 17, 14, 13, 11, 19, 17, 16, 12, 10, 5, 26, 22, 18, 15, 11, 5, 8, 6, 5, 4, 3, 1, 22, 19, 17, 13, 8, 6, 19, 17, 16, 14, 12, 12, 22, 18, 15, 12, 9, 9, 24, 23, 22, 22, 21, 21, 28, 20, 16, 12, 7, 4, 28, 24, 21, 20, 18, 14, 17, 16, 15, 13, 12, 12, 25, 19, 16, 12, 10, 5, 30, 24, 23, 20, 19, 16, 28, 27, 26, 25, 24, 23, 10, 10, 9, 8, 8, 7, 29, 29, 29, 29, 29, 29, 25, 21, 19, 16, 15, 11, 24, 22, 21, 21, 20, 19, 8, 7, 6, 5, 5, 4, 20, 20, 20, 19, 18, 18, 15, 13, 11, 11, 9, 9, 24, 24, 22, 22, 21, 20, 18, 15, 11, 10, 7, 2, 22, 22, 22, 21, 21, 21, 24, 22, 18, 16, 15, 12, 23, 23, 22, 20, 20, 19, 28, 26, 25, 24, 23, 23, 24, 23, 23, 22, 21, 20, 24, 23, 20, 16, 10, 7, 23, 22, 22, 22, 21, 21, 17, 17, 16, 14, 14, 13, 19, 19, 13, 10, 9, 6, 20, 17, 16, 12, 9, 8, 28, 26, 25, 25, 23, 23, 29, 25, 21, 21, 17, 15, 18, 18, 15, 14, 10, 7, 7, 6, 5, 3, 2, 2, 26, 24, 20, 16, 14, 10, 24, 19, 17, 13, 9, 5, 21, 16, 11, 9, 5, 2, 25, 22, 20, 16, 14, 14, 15, 15, 14, 14, 13, 13, 29, 25, 22, 20, 15, 14, 21, 20, 20, 19, 19, 18, 18, 18, 18, 18, 18, 18, 16, 16, 15, 15, 14, 14, 22, 19, 19, 13, 10, 10, 20, 20, 18, 17, 17, 15, 15, 14, 12, 10, 8, 5, 14, 12, 10, 6, 5, 3, 25, 25, 23, 23, 22, 21, 25, 22, 16, 12, 11, 7, 12, 12, 11, 10, 8, 8, 25, 20, 19, 15, 11, 4, 7, 7, 6, 6, 4, 4, 24, 22, 15, 10, 6, 2, 20, 19, 19, 16, 16, 13, 13, 13, 12, 11, 11, 10, 29, 25, 23, 20, 19, 18, 22, 22, 22, 22, 21, 21, 22, 22, 20, 18, 17, 16, 16, 14, 11, 10, 6, 6, 25, 24, 17, 13, 6, 3, 10, 9, 7, 6, 5, 4, 10, 8, 8, 6, 6, 4, 5, 5, 5, 4, 4, 4, 28, 27, 26, 26, 26, 25, 10, 8, 8, 7, 6, 4, 16, 13, 13, 10, 5, 4, 13, 12, 11, 10, 9, 9, 11, 10, 9, 7, 5, 3, 24, 22, 21, 17, 17, 14, 28, 27, 27, 27, 26, 26, 18, 15, 13, 13, 11, 8, 24, 23, 23, 22, 19, 18, 20, 17, 16, 13, 12, 9
 |25, 24, 21, 18, 13, 12, 13, 11, 11, 8, 6, 5, 21, 20, 20, 19, 19, 19, 26, 24, 23, 22, 20, 19, 15, 13, 13, 10, 7, 4, 16, 13, 10, 8, 3, 2, 25, 24, 23, 22, 21, 19, 13, 11, 10, 6, 5, 3, 16, 13, 11, 10, 6, 2, 19, 18, 16, 12, 10, 10, 20, 18, 17, 12, 11, 9, 21, 18, 16, 11, 7, 3, 25, 25, 23, 21, 19, 19, 26, 26, 25, 23, 22, 22, 25, 24, 19, 17, 13, 11, 25, 21, 19, 14, 14, 8, 26, 25, 20, 15, 15, 9, 10, 9, 8, 7, 6, 4, 24, 18, 17, 11, 8, 4, 19, 17, 16, 16, 14, 12, 14, 13, 13, 12, 10, 10, 20, 17, 17, 15, 13, 11, 26, 21, 19, 10, 6, 2, 29, 28, 27, 27, 26, 24, 20, 19, 14, 13, 8, 7, 27, 27, 26, 24, 24, 23, 27, 24, 18, 16, 12, 9, 23, 16, 13, 11, 7, 4, 19, 15, 12, 11, 9, 6, 26, 22, 20, 15, 13, 8, 28, 22, 15, 13, 8, 3, 22, 21, 16, 13, 7, 6, 27, 27, 24, 19, 18, 16, 25, 20, 20, 13, 9, 6, 30, 25, 22, 17, 17, 12, 27, 26, 26, 26, 25, 25, 27, 26, 24, 22, 21, 18, 8, 8, 7, 5, 4, 3, 25, 24, 24, 23, 22, 22, 12, 12, 10, 6, 6, 4, 20, 18, 17, 16, 13, 13, 28, 27, 27, 27, 27, 27, 10, 10, 7, 6, 4, 3, 23, 21, 19, 18, 17, 14, 20, 18, 18, 13, 13, 9, 28, 26, 24, 20, 19, 18, 20, 19, 19, 19, 18, 18, 28, 26, 25, 25, 23, 23, 26, 26, 26, 25, 25, 25, 27, 26, 26, 25, 24, 24, 22, 22, 19, 18, 17, 16, 23, 23, 21, 19, 17, 15, 30, 29, 28, 27, 25, 25, 8, 8, 7, 5, 5, 4, 22, 21, 18, 14, 11, 8, 23, 22, 21, 20, 20, 19, 25, 20, 17, 15, 11, 10, 12, 11, 10, 9, 8, 7, 12, 12, 10, 10, 8, 6, 23, 18, 14, 12, 6, 5, 30, 26, 23, 22, 21, 18, 16, 14, 14, 13, 12, 12, 20, 20, 20, 20, 20, 20, 26, 22, 19, 17, 11, 8, 26, 25, 23, 23, 22, 20, 27, 24, 19, 13, 10, 7, 22, 18, 17, 12, 9, 8, 7, 7, 7, 7, 6, 6, 28, 27, 25, 25, 22, 21, 10, 8, 6, 5, 2, 1, 6, 5, 5, 4, 3, 3, 18, 18, 18, 18, 18, 18, 15, 14, 14, 14, 13, 13, 15, 12, 11, 11, 9, 6, 17, 15, 13, 11, 8, 2, 1, 1, 1, 1, 1, 1, 18, 18, 17, 17, 16, 16, 28, 27, 26, 24, 24, 22, 28, 27, 27, 26, 26, 25, 26, 18, 17, 13, 7, 5, 27, 20, 19, 14, 8, 7, 6, 5, 4, 3, 2, 1, 29, 23, 21, 17, 16, 13, 19, 18, 14, 14, 8, 7, 23, 23, 22, 20, 19, 19, 27, 26, 23, 23, 20, 18, 12, 11, 9, 9, 7, 5, 21, 19, 19, 17, 17, 15, 18, 16, 16, 15, 13, 13, 22, 21, 21, 21, 20, 19, 27, 23, 22, 16, 14, 12, 12, 12, 12, 12, 12, 12, 9, 8, 7, 5, 2, 1, 22, 18, 16, 12, 12, 8, 19, 18, 16, 15, 11, 11, 13, 12, 11, 11, 9, 7, 20, 18, 17, 13, 11, 10, 23, 19, 15, 12, 11, 6, 30, 24, 22, 16, 14, 13, 20, 19, 13, 12, 6, 3
 |25, 20, 19, 16, 14, 11, 9, 9, 8, 6, 6, 5, 14, 13, 13, 10, 9, 9, 24, 18, 18, 12, 8, 6, 25, 25, 19, 17, 13, 12, 24, 24, 20, 18, 12, 12, 5, 4, 4, 4, 4, 4, 24, 18, 17, 12, 12, 6, 18, 15, 12, 10, 10, 7, 24, 19, 16, 12, 11, 3, 15, 15, 11, 8, 6, 5, 19, 18, 17, 14, 14, 12, 21, 14, 14, 9, 4, 2, 18, 17, 15, 14, 11, 10, 23, 22, 20, 18, 16, 16, 20, 19, 17, 17, 15, 14, 17, 16, 16, 15, 15, 14, 23, 19, 14, 10, 8, 6, 2, 2, 2, 1, 1, 1, 15, 14, 13, 13, 13, 12, 27, 27, 27, 26, 25, 25, 24, 23, 18, 17, 12, 11, 10, 10, 10, 9, 9, 9, 20, 17, 17, 13, 11, 11, 18, 17, 17, 16, 15, 15, 26, 25, 25, 25, 25, 25, 25, 24, 21, 18, 18, 15, 15, 15, 12, 12, 10, 8, 26, 23, 23, 19, 18, 15, 24, 19, 15, 10, 10, 4, 19, 17, 17, 14, 14, 11, 26, 23, 22, 21, 20, 19, 28, 28, 27, 27, 26, 26, 6, 5, 5, 5, 4, 4, 26, 22, 17, 12, 10, 6, 26, 26, 26, 26, 25, 25, 18, 14, 14, 10, 8, 6, 25, 23, 22, 18, 14, 12, 22, 16, 12, 9, 7, 4, 17, 15, 12, 12, 11, 8, 21, 17, 14, 12, 8, 5, 28, 28, 27, 26, 25, 24, 24, 24, 24, 23, 23, 23, 21, 20, 18, 13, 12, 8, 29, 29, 29, 29, 29, 29, 23, 23, 20, 16, 16, 12, 28, 24, 19, 19, 13, 9, 24, 23, 23, 22, 22, 21, 16, 15, 15, 14, 12, 11, 15, 14, 13, 13, 12, 12, 21, 20, 19, 19, 17, 17, 14, 14, 13, 11, 11, 10, 6, 6, 6, 5, 4, 4, 22, 19, 17, 13, 8, 5, 18, 17, 16, 16, 14, 13, 23, 23, 23, 23, 23, 23, 30, 27, 25, 25, 21, 20, 30, 28, 25, 25, 22, 21, 22, 19, 17, 15, 14, 13, 21, 19, 16, 16, 13, 10, 29, 27, 26, 26, 24, 24, 25, 18, 15, 10, 6, 5, 29, 27, 26, 24, 22, 22, 12, 12, 11, 9, 9, 8, 9, 8, 8, 8, 8, 8, 12, 12, 8, 8, 6, 4, 26, 22, 21, 17, 12, 10, 16, 15, 15, 15, 15, 15, 28, 26, 24, 23, 21, 19, 10, 9, 9, 8, 7, 7, 15, 14, 13, 12, 11, 11, 21, 20, 19, 17, 16, 16, 7, 7, 7, 6, 6, 6, 27, 27, 27, 27, 27, 27, 7, 7, 7, 7, 7, 7, 16, 14, 11, 9, 6, 3, 14, 11, 10, 10, 7, 6, 22, 21, 14, 11, 6, 1, 27, 26, 25, 22, 20, 20, 17, 15, 13, 13, 11, 7, 16, 15, 15, 13, 11, 11, 26, 22, 18, 14, 9, 4, 9, 9, 9, 8, 7, 7, 30, 27, 26, 23, 21, 19, 12, 11, 11, 9, 6, 5, 9, 8, 7, 6, 5, 3, 27, 24, 21, 17, 12, 10, 21, 20, 18, 18, 17, 16, 28, 23, 22, 18, 14, 11, 30, 22, 22, 18, 11, 9, 19, 18, 18, 18, 17, 17, 22, 22, 22, 22, 22, 22, 25, 22, 19, 18, 14, 12, 26, 23, 22, 18, 15, 13, 25, 21, 19, 12, 12, 7, 28, 24, 22, 19, 19, 15, 18, 13, 11, 8, 8, 4, 8, 8, 7, 7, 6, 6, 18, 15, 15, 14, 13, 12, 25, 25, 25, 25, 24, 24
 |19, 17, 14, 13, 13, 11, 26, 23, 22, 19, 18, 16, 10, 10, 10, 10, 10, 10, 21, 20, 20, 19, 18, 18, 24, 24, 23, 22, 21, 21, 19, 18, 14, 12, 11, 8, 23, 23, 22, 21, 20, 19, 20, 20, 20, 19, 19, 18, 14, 10, 10, 8, 5, 4, 20, 18, 15, 11, 7, 5, 25, 21, 15, 13, 9, 2, 14, 13, 12, 12, 11, 11, 29, 27, 24, 22, 22, 20, 28, 28, 28, 28, 28, 28, 22, 21, 19, 18, 16, 15, 24, 24, 22, 22, 21, 19, 21, 21, 13, 11, 5, 5, 9, 7, 7, 6, 4, 4, 28, 24, 22, 19, 18, 14, 20, 19, 18, 16, 12, 10, 20, 16, 15, 14, 11, 10, 7, 6, 4, 3, 2, 2, 20, 18, 18, 16, 15, 13, 28, 27, 24, 20, 16, 15, 25, 19, 17, 16, 11, 5, 2, 2, 2, 2, 1, 1, 20, 17, 13, 11, 9, 7, 22, 22, 20, 17, 15, 14, 17, 16, 16, 16, 16, 16, 17, 12, 10, 10, 7, 6, 24, 23, 22, 22, 22, 21, 29, 29, 29, 29, 29, 29, 20, 19, 19, 18, 17, 17, 22, 17, 14, 12, 8, 8, 28, 28, 28, 28, 28, 28, 2, 1, 1, 1, 1, 1, 20, 20, 16, 14, 9, 6, 10, 8, 6, 6, 5, 4, 3, 3, 3, 3, 3, 3, 12, 11, 11, 11, 10, 10, 21, 19, 19, 18, 16, 16, 24, 24, 21, 19, 18, 16, 11, 11, 10, 10, 8, 8, 28, 23, 18, 16, 12, 8, 18, 15, 13, 10, 7, 5, 11, 11, 9, 6, 5, 4, 25, 21, 18, 13, 9, 7, 9, 9, 9, 9, 9, 9, 19, 18, 18, 18, 17, 16, 18, 17, 16, 15, 14, 13, 11, 9, 8, 6, 3, 2, 4, 3, 3, 2, 2, 2, 13, 12, 12, 11, 11, 11, 27, 22, 20, 18, 17, 15, 26, 23, 22, 21, 18, 18, 29, 27, 27, 26, 24, 24, 29, 28, 26, 24, 20, 20, 16, 12, 10, 10, 8, 5, 27, 26, 22, 22, 20, 16, 26, 25, 25, 25, 25, 25, 29, 27, 27, 25, 23, 22, 14, 13, 10, 10, 8, 6, 28, 25, 21, 17, 12, 7, 21, 20, 15, 13, 11, 8, 27, 27, 21, 20, 17, 15, 21, 19, 16, 14, 13, 11, 24, 24, 24, 24, 24, 24, 30, 24, 21, 20, 16, 14, 24, 21, 17, 16, 10, 7, 23, 20, 18, 15, 14, 10, 30, 24, 22, 21, 18, 14, 18, 17, 15, 13, 13, 10, 16, 16, 14, 13, 13, 12, 21, 15, 14, 12, 9, 7, 15, 10, 9, 6, 3, 1, 20, 18, 17, 16, 16, 14, 13, 13, 11, 10, 10, 8, 22, 22, 22, 22, 22, 22, 28, 24, 21, 18, 17, 14, 15, 13, 13, 11, 7, 6, 21, 19, 19, 15, 12, 11, 22, 19, 18, 14, 14, 10, 28, 26, 25, 25, 23, 22, 28, 24, 19, 17, 11, 7, 21, 20, 19, 19, 18, 18, 29, 28, 28, 28, 28, 28, 11, 10, 9, 8, 6, 5, 29, 29, 29, 28, 28, 27, 11, 10, 10, 10, 8, 8, 13, 13, 12, 10, 9, 8, 19, 15, 13, 11, 10, 7, 14, 14, 13, 13, 13, 12, 11, 8, 6, 6, 3, 2, 18, 15, 14, 12, 9, 7, 20, 17, 16, 14, 13, 12, 28, 23, 20, 18, 16, 13, 16, 14, 13, 9, 9, 5, 29, 27, 26, 24, 24, 23, 24, 23, 22, 19, 15, 14, 13, 12, 10, 7, 7, 3|];